! Solving for graph /home/truongxuanhieu/CPLEX-CP-for-MinSpanLabeling/benchmarks/abp/U-662_bus.mtx.rnd
! Target value is set to 330
! Lower bound is set to 331
! Upper bound is set to 993
! Time limit is set to 1800
! Vertices mode is set to Has hole
 ! --------------------------------------------------- CP Optimizer 22.2.0.0 --
 ! Minimization problem - 663 variables, 1569 constraints, 1 phase
 ! TimeLimit            = 1800
 ! LogVerbosity         = Terse
 ! Initial process time : 0.01s (0.01s extraction + 0.00s propagation)
 !  . Log search space  : 6599.0 (before), 6599.0 (after)
 !  . Memory usage      : 886.5 kB (before), 886.5 kB (after)
 ! Using parallel search with 8 workers.
 ! ----------------------------------------------------------------------------
 !          Best Branches  Non-fixed    W       Branch decision
                        0        663                 -
 + New bound is 331
                        2        662    1   F     1 != _int191
 + New bound is 332
 *           991      663  0.15s        1      (gap is 66.50%)
             991     174k        661    2   F        -
 + New bound is 343 (gap is 65.39%)
             991     174k        661    2   F        -
 + New bound is 344 (gap is 65.29%)
             991     189k        627    7   F        -
 + New bound is 345 (gap is 65.19%)
             991     211k        550    1   F        -
 + New bound is 346 (gap is 65.09%)
             991     213k        663    1            -
 + New bound is 991 (gap is 0.00%)
 ! ----------------------------------------------------------------------------
 ! Search completed, 1 solution found.
 ! Best objective         : 991 (optimal - effective tol. is 0)
 ! Best bound             : 991
 ! ----------------------------------------------------------------------------
 ! Number of branches     : 1747583
 ! Number of fails        : 674697
 ! Total memory usage     : 82.9 MB (82.4 MB CP Optimizer + 0.6 MB Concert)
 ! Time spent in solve    : 14.68s (14.68s engine + 0.01s extraction)
 ! Search speed (br. / s) : 119126.3
 ! ----------------------------------------------------------------------------
! --------------------------------------------------------
! Best span = 991
! Labeling: 1 331 331 1 1 331 1 1 331 1 1 1 331 1 1 1 1 1 1 1 661 1 1 661 661 331 331 331 1 331 661 661 1 331 1 1 1 331 331 1 331 331 331 331 1 1 1 331 1 331 331 1 1 1 1 1 1 661 331 1 661 661 1 661 1 991 1 331 331 1 1 331 331 1 1 1 1 1 1 1 1 1 1 1 1 1 331 331 1 331 331 1 1 661 1 1 331 1 331 331 661 331 331 331 1 1 661 331 331 1 661 1 1 331 331 331 661 331 1 1 1 331 331 331 331 661 331 331 331 661 331 661 661 1 661 331 661 331 1 331 331 661 331 1 661 331 331 1 661 331 331 1 661 1 1 661 1 331 331 331 331 1 331 1 1 331 331 1 661 661 331 1 1 661 661 1 1 661 331 331 661 1 1 1 1 1 331 1 331 331 331 331 1 1 1 661 331 331 661 331 331 331 331 1 331 331 1 331 331 661 1 1 331 1 1 331 1 1 331 661 1 1 331 1 331 661 331 331 331 331 661 1 1 1 331 1 331 1 331 1 331 1 1 1 661 331 331 331 1 331 331 1 1 661 331 1 661 661 1 331 1 331 1 331 1 1 1 1 1 661 661 1 331 661 331 331 1 1 331 331 331 331 1 1 661 661 331 1 1 661 331 331 1 1 331 331 331 1 1 1 1 1 331 1 661 1 1 331 331 1 661 1 331 661 331 331 331 331 1 331 331 331 1 1 331 331 331 1 1 661 661 331 661 331 1 661 1 331 1 661 331 331 1 1 1 1 1 1 331 1 661 661 1 1 331 331 331 331 331 1 1 331 1 1 331 331 1 1 331 1 1 331 331 1 1 331 331 1 331 331 331 331 331 331 331 331 331 661 1 1 661 1 1 1 331 1 1 1 1 661 331 1 1 331 1 331 331 331 331 1 661 331 331 1 331 1 331 331 1 661 331 331 331 331 661 331 331 331 1 331 331 1 1 331 661 1 331 1 331 1 331 1 661 331 661 1 661 1 1 331 331 1 331 661 661 331 331 331 331 331 1 331 661 1 1 1 1 1 331 1 1 331 1 331 661 991 1 1 661 331 661 331 1 661 1 331 1 1 1 331 1 1 331 331 1 1 1 661 661 331 1 1 1 1 331 1 331 1 331 1 1 661 1 1 1 331 1 661 331 661 331 1 661 331 1 331 331 1 1 331 661 661 1 1 1 661 1 331 1 1 1 331 331 661 661 331 661 1 331 1 1 1 661 331 331 661 1 1 331 1 331 331 1 331 1 331 331 331 331 1 661 1 331 1 661 1 331 1 1 331 1 1 661 1 1 661 331 1 331 1 1 1 661 661 1 1 331 331 331 331 1 331 1 1 1 331 1 1 331 1 1 1 661 331 331 331 331 661 1 331 331 661 331 1 1 331 1 331 331 331 331 661 331 1 1 1 1 661 331 1 331 331 1 331 331 1 661 661 1 331 661 661 1 1 331 331 331 1 1 1 331 661 
! -------------------------------------------------------- 
